200
[40,41,43,44,46,47,48,50,51,52,53,54,55,56,58,59,60,61,62,63,64,65,66,67,68,69,70,71,72,73,74,75,76,77,78,79,80,82,83,84,85,86,87,89,90,91,92,94,95,97,98,99,100,102,103,105,106,107,108,110,112,113,114,115,118,119,121,122,123,124,125,126,127,128,129,130,131,132,133,134,136,138,139,140,141,143,144,145,146,148,150,152,153,154,155,156,157,158,159]
[6,1,3,1,1,3,3,4,1,1,1,4,3,2,4,2,3,3,1,2,1,1,5,2,2,2,1,3,1,2,4,2,3,1,1,1,2,4,2,3,1,1,1,1,2,3,2,1,1,2,1,2,3,1,2,3,4,2,3,2,2,1,3,1,2,2,1,2,1,1,2,4,1,1,2,1,1,3,2,1,1,1,1,1,3,2,2,2,3,2,2,3,2,1,3,1,1,2,3]
